
n_res = 6;
rcap = [30, 29, 31, 30, 1599, 1527];
rtype = [1, 1, 1, 1, 2, 2];
n_tasks = 100;
modes =  [{1, 2, 3}, {4, 5, 6}, {7, 8, 9}, {10, 11, 12}, {13, 14, 15}, {16, 17, 18}, {19, 20, 21}, {22, 23, 24}, {25, 26, 27}, {28, 29, 30}, {31, 32, 33}, {34, 35, 36}, {37, 38, 39}, {40, 41, 42}, {43, 44, 45}, {46, 47, 48}, {49, 50, 51}, {52, 53, 54}, {55, 56, 57}, {58, 59, 60}, {61, 62, 63}, {64, 65, 66}, {67, 68, 69}, {70, 71, 72}, {73, 74, 75}, {76, 77, 78}, {79, 80, 81}, {82, 83, 84}, {85, 86, 87}, {88, 89, 90}, {91, 92, 93}, {94, 95, 96}, {97, 98, 99}, {100, 101, 102}, {103, 104, 105}, {106, 107, 108}, {109, 110, 111}, {112, 113, 114}, {115, 116, 117}, {118, 119, 120}, {121, 122, 123}, {124, 125, 126}, {127, 128, 129}, {130, 131, 132}, {133, 134, 135}, {136, 137, 138}, {139, 140, 141}, {142, 143, 144}, {145, 146, 147}, {148, 149, 150}, {151, 152, 153}, {154, 155, 156}, {157, 158, 159}, {160, 161, 162}, {163, 164, 165}, {166, 167, 168}, {169, 170, 171}, {172, 173, 174}, {175, 176, 177}, {178, 179, 180}, {181, 182, 183}, {184, 185, 186}, {187, 188, 189}, {190, 191, 192}, {193, 194, 195}, {196, 197, 198}, {199, 200, 201}, {202, 203, 204}, {205, 206, 207}, {208, 209, 210}, {211, 212, 213}, {214, 215, 216}, {217, 218, 219}, {220, 221, 222}, {223, 224, 225}, {226, 227, 228}, {229, 230, 231}, {232, 233, 234}, {235, 236, 237}, {238, 239, 240}, {241, 242, 243}, {244, 245, 246}, {247, 248, 249}, {250, 251, 252}, {253, 254, 255}, {256, 257, 258}, {259, 260, 261}, {262, 263, 264}, {265, 266, 267}, {268, 269, 270}, {271, 272, 273}, {274, 275, 276}, {277, 278, 279}, {280, 281, 282}, {283, 284, 285}, {286, 287, 288}, {289, 290, 291}, {292, 293, 294}, {295, 296, 297}, {298, 299, 300}];
succ =  [{97, 65, 54, 52, 46, 44, 43, 40, 39, 34, 15, 12}, {100, 66, 65, 60, 58, 55, 53, 50, 40, 37, 33, 26, 23}, {99, 98, 96, 95, 93, 92, 87, 60, 55, 48, 46, 44, 38, 37, 30}, {95, 93, 56, 53, 48, 46, 43, 36, 20}, {99, 96, 95, 91, 60, 58, 56, 54, 53, 52, 47, 46, 40}, {97, 96, 95, 94, 92, 91, 63, 58, 56, 55, 52, 46, 43, 40}, {100, 99, 97, 96, 95, 93, 92, 89, 86, 83, 82, 80, 79, 78, 77, 70, 65, 64, 63, 62, 59, 58, 56, 55, 52}, {98, 97, 94, 91, 89, 86, 85, 78, 65, 64, 63, 58, 57, 55, 52, 43, 39}, {99, 98, 96, 95, 94, 93, 92, 91, 90, 88, 84, 81, 80, 78, 77, 75, 65, 64, 59, 58, 56, 46}, {100, 99, 97, 95, 93, 92, 91, 90, 87, 86, 84, 80, 78, 77, 58, 57, 55, 52, 46}, {96, 95, 93, 91, 90, 87, 77, 65, 63, 61, 58, 55, 52, 46, 44}, {99, 96, 95, 94, 93, 91, 89, 86, 83, 80, 78, 77, 71, 70, 68, 66, 64, 63, 60, 59, 55, 53}, {100, 99, 97, 94, 92, 86, 85, 83, 82, 78, 59, 58, 56, 55, 52, 39}, {95, 92, 91, 89, 84, 83, 82, 81, 79, 78, 76, 71, 68, 65, 59, 55, 54, 40}, {100, 99, 96, 95, 94, 93, 91, 90, 89, 87, 86, 85, 84, 83, 82, 81, 80, 79, 78, 77, 73, 61, 58, 57, 56}, {97, 93, 92, 90, 86, 78, 77, 65, 59, 57, 55, 52, 46, 43}, {99, 98, 95, 94, 93, 92, 90, 88, 86, 85, 84, 82, 80, 77, 73, 58, 57, 56, 52, 47}, {100, 95, 93, 91, 90, 89, 87, 85, 81, 80, 77, 74, 66, 63, 57, 56, 53, 47}, {100, 98, 94, 91, 89, 82, 70, 67, 64, 62, 59, 55, 47, 44}, {100, 99, 98, 97, 90, 89, 86, 85, 84, 83, 82, 81, 80, 79, 78, 77, 76, 75, 73, 58, 57, 55}, {96, 94, 89, 88, 86, 85, 83, 82, 79, 77, 76, 65, 59, 57, 44}, {99, 97, 92, 91, 90, 87, 86, 80, 77, 66, 59, 57, 56, 50, 47}, {97, 96, 95, 94, 91, 88, 87, 86, 84, 81, 77, 75, 72, 71, 63, 46}, {98, 97, 95, 88, 87, 79, 66, 56, 35}, {96, 92, 89, 86, 85, 84, 83, 82, 81, 80, 79, 78, 76, 75, 74, 73, 72, 71, 70, 69, 68, 64}, {97, 93, 92, 88, 78, 77, 75, 57, 56, 43}, {96, 86, 85, 78, 71, 70, 68, 63, 59, 55, 53}, {98, 91, 90, 89, 86, 85, 83, 82, 79, 77, 75, 73, 72, 69, 64, 57}, {98, 96, 94, 89, 88, 84, 83, 79, 68, 66, 59, 54}, {100, 97, 88, 86, 84, 80, 79, 76, 73, 72, 69, 65, 58, 57}, {94, 92, 87, 86, 84, 83, 81, 80, 77, 76, 75, 74, 73, 71, 68, 63}, {86, 85, 84, 81, 80, 78, 77, 76, 75, 74, 71, 70, 68, 55}, {91, 90, 89, 86, 78, 77, 76, 75, 72, 71, 69, 59, 57}, {94, 89, 86, 84, 83, 81, 77, 58, 57, 56}, {82, 77, 75, 74, 73, 71, 70, 69, 50}, {96, 90, 87, 85, 84, 82, 81, 79, 76, 75, 74, 70, 69, 68}, {91, 83, 81, 79, 78, 76, 74, 71, 70, 68, 63, 56}, {91, 90, 88, 84, 83, 82, 81, 80, 71, 69, 57}, {93, 90, 87, 84, 80, 79, 77, 75, 72, 71, 70, 68}, {98, 93, 90, 88, 86, 80, 77, 75, 70, 69, 64}, {94, 90, 86, 83, 80, 79, 78, 70, 68, 58}, {85, 76, 71, 70, 68, 65, 56, 55}, {84, 82, 81, 80, 79, 76, 73, 72, 71, 69}, {84, 81, 80, 78, 73, 71, 68, 56}, {94, 81, 78, 76, 71, 70, 68, 56}, {89, 85, 83, 82, 79, 73, 70, 68}, {83, 78, 76, 72, 71, 69, 68}, {89, 82, 81, 77, 75, 70, 68}, {87, 86, 81, 79, 78, 73, 68}, {85, 83, 78, 76, 72, 68}, {91, 89, 82, 77, 73, 70}, {81, 76, 75, 69, 68}, {92, 82, 79, 75, 73}, {87, 80, 77, 69}, {88, 72, 69}, {72, 69}, {70, 68}, {74, 71}, {74, 73}, {84, 79}, {75, 70}, {85, 75}, {69}, {87}, {74}, {76}, {78}, {}, {}, {}, {}, {}, {}, {}, {}, {}, {}, {}, {}, {}, {}, {}, {}, {}, {}, {}, {}, {}, {}, {}, {}, {}, {}, {}, {}, {}, {}, {}, {}, {}];
n_opt = 300;
dur = [18, 19, 27, 9, 17, 28, 13, 21, 22, 13, 20, 24, 8, 9, 23, 2, 3, 4, 13, 24, 29, 1, 7, 29, 20, 23, 24, 17, 28, 29, 8, 9, 26, 2, 5, 22, 7, 12, 15, 5, 18, 30, 1, 11, 17, 5, 7, 13, 10, 19, 20, 3, 18, 22, 1, 24, 27, 8, 17, 23, 2, 28, 30, 4, 5, 28, 6, 10, 14, 3, 16, 27, 4, 12, 16, 21, 23, 26, 13, 18, 30, 2, 25, 29, 6, 9, 29, 18, 19, 22, 10, 23, 28, 5, 6, 15, 1, 18, 28, 12, 21, 27, 17, 27, 29, 2, 14, 19, 2, 12, 27, 10, 13, 16, 14, 19, 22, 10, 16, 24, 1, 12, 18, 4, 23, 26, 13, 16, 18, 3, 10, 25, 4, 14, 22, 9, 18, 27, 19, 26, 28, 9, 24, 25, 11, 17, 25, 10, 21, 23, 12, 23, 25, 11, 14, 16, 1, 7, 9, 3, 15, 20, 3, 4, 23, 6, 23, 30, 15, 16, 25, 6, 10, 25, 21, 22, 30, 9, 22, 26, 4, 24, 29, 7, 16, 27, 17, 24, 26, 10, 15, 21, 4, 6, 11, 10, 13, 24, 1, 3, 16, 23, 27, 29, 1, 13, 24, 1, 8, 20, 5, 6, 30, 3, 6, 7, 11, 12, 25, 7, 23, 27, 2, 8, 27, 7, 21, 30, 4, 7, 9, 1, 9, 19, 1, 16, 17, 21, 27, 28, 9, 16, 22, 9, 10, 23, 5, 6, 26, 7, 15, 30, 1, 13, 21, 5, 15, 16, 13, 18, 30, 1, 4, 22, 2, 23, 24, 3, 19, 20, 4, 15, 20, 4, 22, 26, 4, 8, 9, 13, 17, 19, 6, 12, 15, 15, 17, 28, 8, 19, 22, 8, 14, 20, 10, 17, 26, 1, 7, 21];
rreq = [|4, 4, 4, 3, 3, 2, 1, 1, 1, 4, 2, 1, 1, 1, 1, 3, 2, 2, 4, 3, 2, 4, 2, 1, 4, 3, 3, 4, 2, 1, 4, 3, 3, 3, 2, 1, 3, 3, 3, 2, 2, 2, 2, 2, 2, 4, 2, 2, 3, 2, 2, 4, 2, 1, 2, 2, 2, 4, 4, 4, 3, 2, 2, 5, 4, 4, 2, 2, 2, 4, 2, 2, 2, 2, 1, 5, 3, 1, 4, 4, 4, 3, 2, 2, 4, 4, 4, 4, 3, 2, 4, 3, 2, 3, 1, 1, 5, 4, 4, 3, 2, 2, 4, 4, 4, 3, 2, 1, 3, 3, 3, 4, 4, 3, 3, 2, 2, 3, 2, 2, 3, 3, 3, 4, 3, 2, 5, 3, 3, 2, 2, 2, 5, 3, 3, 4, 2, 2, 3, 2, 2, 5, 4, 3, 4, 3, 3, 1, 1, 1, 3, 2, 1, 4, 4, 3, 2, 1, 1, 4, 4, 4, 4, 4, 4, 2, 1, 1, 4, 3, 2, 3, 3, 3, 5, 4, 4, 5, 5, 5, 5, 4, 4, 1, 1, 1, 3, 3, 1, 2, 2, 2, 5, 3, 3, 4, 3, 3, 4, 3, 2, 3, 2, 1, 4, 4, 4, 3, 3, 1, 5, 3, 3, 4, 2, 1, 1, 1, 1, 3, 2, 2, 4, 3, 3, 2, 2, 1, 2, 2, 2, 4, 3, 3, 5, 3, 2, 1, 1, 1, 5, 4, 4, 2, 1, 1, 2, 2, 2, 3, 3, 1, 4, 4, 4, 2, 2, 2, 2, 1, 1, 4, 3, 2, 3, 3, 3, 5, 4, 4, 4, 4, 3, 4, 3, 2, 5, 3, 3, 3, 1, 1, 2, 2, 2, 3, 2, 1, 1, 1, 1, 4, 3, 2, 4, 3, 3, 3, 2, 2
 |4, 4, 3, 4, 3, 2, 5, 4, 3, 3, 3, 3, 3, 2, 2, 3, 2, 2, 4, 4, 3, 1, 1, 1, 5, 3, 2, 3, 3, 3, 4, 3, 3, 2, 2, 2, 4, 2, 2, 3, 2, 1, 3, 2, 2, 4, 4, 3, 4, 3, 2, 2, 2, 2, 5, 3, 2, 4, 2, 1, 3, 2, 2, 3, 3, 3, 1, 1, 1, 4, 4, 4, 2, 1, 1, 5, 2, 1, 5, 5, 5, 2, 2, 2, 3, 3, 1, 4, 4, 2, 2, 2, 2, 3, 3, 3, 4, 4, 4, 1, 1, 1, 4, 3, 1, 4, 4, 3, 5, 5, 5, 2, 2, 2, 1, 1, 1, 1, 1, 1, 4, 3, 3, 3, 3, 2, 2, 2, 2, 2, 2, 2, 4, 3, 3, 5, 5, 5, 5, 2, 2, 5, 4, 3, 2, 2, 2, 4, 4, 3, 2, 1, 1, 1, 1, 1, 5, 4, 4, 5, 4, 2, 4, 4, 3, 4, 3, 1, 1, 1, 1, 3, 3, 2, 2, 1, 1, 4, 4, 4, 3, 2, 1, 3, 1, 1, 1, 1, 1, 4, 4, 4, 4, 3, 2, 4, 2, 2, 3, 3, 1, 4, 3, 3, 2, 2, 1, 5, 3, 3, 4, 3, 3, 3, 3, 3, 2, 2, 2, 1, 1, 1, 3, 2, 1, 2, 1, 1, 3, 3, 3, 4, 3, 3, 5, 4, 3, 2, 2, 2, 3, 2, 2, 5, 5, 5, 4, 2, 2, 3, 2, 2, 1, 1, 1, 4, 3, 3, 2, 2, 2, 4, 2, 2, 2, 1, 1, 4, 3, 3, 4, 3, 2, 3, 2, 2, 3, 2, 1, 4, 3, 3, 2, 2, 2, 5, 4, 3, 3, 2, 2, 5, 5, 5, 4, 4, 4, 3, 2, 2
 |2, 2, 2, 5, 4, 4, 4, 4, 2, 5, 5, 5, 4, 3, 3, 4, 4, 4, 3, 2, 1, 5, 4, 2, 4, 4, 4, 3, 2, 1, 3, 1, 1, 4, 2, 2, 3, 3, 3, 5, 3, 2, 2, 1, 1, 2, 2, 2, 3, 2, 1, 5, 3, 2, 4, 3, 2, 4, 2, 1, 3, 2, 2, 2, 1, 1, 3, 3, 2, 3, 2, 2, 5, 4, 3, 5, 4, 2, 2, 2, 2, 3, 3, 3, 2, 2, 2, 3, 2, 2, 4, 4, 4, 5, 4, 3, 2, 2, 1, 4, 3, 1, 1, 1, 1, 2, 2, 1, 4, 3, 2, 4, 4, 2, 4, 3, 2, 3, 2, 2, 2, 1, 1, 5, 4, 4, 4, 2, 1, 4, 3, 3, 4, 3, 3, 2, 1, 1, 3, 2, 2, 5, 4, 3, 4, 3, 3, 4, 4, 4, 2, 2, 1, 2, 2, 1, 4, 2, 2, 3, 2, 2, 4, 3, 2, 2, 1, 1, 5, 3, 2, 5, 4, 2, 1, 1, 1, 4, 4, 4, 5, 4, 4, 5, 4, 4, 1, 1, 1, 2, 1, 1, 5, 5, 5, 4, 4, 4, 4, 2, 1, 3, 2, 1, 5, 5, 5, 2, 1, 1, 4, 3, 3, 4, 3, 3, 4, 3, 1, 2, 1, 1, 3, 3, 2, 3, 1, 1, 3, 3, 3, 3, 2, 2, 4, 4, 3, 2, 1, 1, 3, 2, 2, 5, 2, 1, 2, 1, 1, 2, 2, 2, 1, 1, 1, 3, 3, 3, 4, 4, 4, 5, 3, 3, 4, 4, 3, 5, 3, 3, 3, 3, 3, 4, 2, 2, 2, 2, 2, 4, 4, 3, 3, 2, 2, 4, 2, 2, 3, 3, 2, 4, 2, 2, 5, 2, 1, 4, 3, 3
 |4, 4, 4, 4, 3, 3, 2, 1, 1, 3, 3, 3, 1, 1, 1, 5, 5, 5, 5, 4, 2, 3, 3, 3, 3, 2, 2, 5, 4, 3, 4, 3, 1, 3, 3, 2, 2, 2, 2, 4, 4, 3, 5, 5, 5, 4, 2, 2, 5, 3, 2, 2, 2, 2, 3, 2, 2, 3, 3, 3, 4, 3, 3, 3, 3, 3, 1, 1, 1, 4, 4, 4, 4, 4, 3, 3, 3, 3, 5, 3, 2, 2, 2, 1, 3, 2, 2, 3, 2, 2, 2, 1, 1, 4, 4, 4, 4, 2, 2, 3, 3, 3, 4, 3, 1, 4, 4, 3, 5, 3, 3, 4, 3, 2, 3, 2, 2, 3, 3, 2, 2, 2, 2, 3, 2, 2, 1, 1, 1, 4, 4, 3, 4, 4, 3, 1, 1, 1, 5, 4, 3, 4, 2, 2, 3, 3, 2, 3, 3, 2, 5, 4, 4, 4, 4, 4, 5, 5, 5, 4, 3, 3, 4, 3, 3, 2, 2, 2, 3, 3, 1, 4, 4, 4, 2, 2, 2, 5, 4, 3, 4, 2, 2, 4, 2, 2, 3, 2, 2, 5, 5, 5, 4, 3, 2, 4, 3, 2, 4, 3, 2, 3, 3, 3, 4, 3, 2, 3, 3, 3, 3, 3, 3, 4, 4, 4, 4, 4, 4, 5, 5, 5, 3, 3, 2, 1, 1, 1, 5, 4, 2, 5, 3, 1, 3, 2, 1, 3, 3, 2, 5, 4, 3, 4, 4, 2, 2, 1, 1, 3, 3, 3, 3, 3, 3, 3, 3, 2, 4, 3, 3, 2, 2, 1, 4, 4, 4, 3, 2, 2, 2, 1, 1, 5, 4, 4, 4, 2, 2, 4, 3, 3, 4, 4, 4, 3, 2, 1, 4, 3, 3, 3, 2, 1, 2, 1, 1, 1, 1, 1
 |22, 17, 13, 7, 7, 6, 18, 17, 17, 26, 24, 21, 18, 16, 15, 14, 14, 11, 23, 21, 18, 30, 25, 23, 26, 26, 20, 16, 10, 10, 6, 6, 3, 25, 12, 11, 15, 9, 9, 27, 25, 18, 22, 19, 8, 23, 15, 12, 17, 14, 13, 24, 17, 15, 17, 13, 11, 14, 12, 12, 17, 16, 12, 22, 19, 18, 5, 3, 3, 22, 21, 21, 26, 18, 15, 15, 8, 5, 25, 18, 10, 13, 8, 8, 25, 23, 21, 22, 21, 13, 14, 10, 9, 12, 6, 1, 13, 12, 10, 22, 21, 21, 27, 21, 13, 6, 4, 4, 7, 7, 7, 29, 26, 26, 18, 16, 12, 8, 7, 7, 22, 21, 20, 20, 19, 19, 8, 7, 7, 15, 15, 15, 17, 13, 6, 20, 13, 11, 25, 25, 15, 16, 14, 8, 28, 19, 2, 29, 11, 6, 26, 25, 25, 26, 23, 20, 11, 10, 8, 24, 14, 9, 22, 16, 11, 24, 21, 19, 21, 17, 11, 13, 9, 8, 30, 30, 30, 20, 14, 12, 24, 13, 9, 10, 9, 9, 27, 22, 18, 15, 12, 8, 24, 20, 11, 14, 12, 8, 14, 13, 12, 12, 6, 2, 13, 10, 10, 17, 15, 9, 20, 17, 13, 10, 9, 7, 30, 25, 21, 25, 14, 11, 13, 10, 7, 28, 22, 20, 21, 20, 13, 9, 8, 8, 17, 16, 14, 19, 14, 13, 27, 16, 12, 17, 15, 15, 13, 9, 8, 21, 19, 16, 21, 17, 15, 19, 15, 11, 17, 15, 15, 27, 24, 21, 23, 20, 17, 26, 26, 24, 20, 11, 5, 17, 11, 8, 27, 25, 22, 13, 11, 7, 15, 12, 3, 17, 14, 14, 14, 14, 11, 25, 18, 15, 27, 26, 24, 25, 22, 20
 |16, 12, 8, 14, 14, 14, 11, 7, 4, 21, 18, 11, 20, 18, 16, 21, 21, 17, 8, 8, 8, 15, 10, 8, 27, 23, 22, 22, 11, 6, 27, 27, 25, 25, 20, 12, 21, 13, 8, 5, 4, 3, 29, 25, 21, 20, 19, 19, 21, 14, 11, 30, 28, 26, 26, 10, 5, 28, 16, 4, 10, 7, 6, 18, 15, 8, 9, 5, 2, 16, 15, 14, 14, 13, 11, 30, 24, 18, 23, 21, 17, 20, 13, 9, 29, 25, 23, 24, 22, 15, 18, 13, 13, 20, 18, 13, 7, 6, 5, 10, 9, 5, 21, 21, 20, 29, 28, 27, 20, 10, 5, 10, 6, 5, 27, 15, 10, 27, 25, 24, 28, 28, 28, 24, 17, 17, 22, 20, 17, 24, 11, 6, 12, 10, 8, 12, 10, 8, 15, 12, 7, 22, 16, 13, 16, 11, 9, 21, 15, 15, 17, 12, 10, 16, 10, 9, 8, 5, 3, 8, 5, 2, 12, 12, 9, 12, 10, 5, 22, 19, 18, 16, 13, 7, 9, 9, 8, 19, 14, 9, 28, 21, 14, 22, 12, 11, 23, 17, 12, 10, 10, 10, 20, 12, 3, 13, 11, 10, 12, 10, 5, 13, 9, 8, 22, 16, 11, 28, 23, 13, 20, 17, 15, 13, 11, 10, 22, 19, 18, 22, 20, 20, 28, 20, 19, 10, 8, 5, 21, 15, 8, 21, 13, 8, 20, 10, 10, 23, 17, 16, 24, 20, 17, 13, 11, 6, 25, 23, 18, 26, 26, 26, 14, 13, 10, 26, 25, 25, 16, 12, 9, 19, 14, 10, 6, 6, 6, 26, 23, 23, 24, 23, 22, 3, 1, 1, 15, 15, 11, 15, 11, 8, 24, 23, 14, 12, 12, 12, 19, 19, 15, 9, 8, 6, 27, 20, 7, 8, 8, 8|];